%%%mzn-stat: initTime=0.004860361
%%%mzn-stat: objective=874
%%%mzn-stat: nodes=11866
%%%mzn-stat: restarts=3
%%%mzn-stat: peakDepth=162
%%%mzn-stat: solveTime=2.595073379
%%%mzn-stat: variables=445
%%%mzn-stat: propagators=1500
%%%mzn-stat: failures=10141
%%%mzn-stat: propagations=3575678
%%%mzn-stat: nogoods=10141
%%%mzn-stat: AverageConflictSize=34.790257371067945
%%%mzn-stat: NumUnitNogoodsLearned=458
%%%mzn-stat: AverageLearnedNogoodLength=25.830884528153042
%%%mzn-stat: AverageBacktrackAmount=0
%%%mzn-stat: AverageLbd=9.162311409131249
%%%mzn-stat-end
maxleg = 874;
succ = array1d(1..50,[18, 12, 49, 22, 13, 37, 47, 5, 29, 21, 2, 44, 30, 33, 32, 40, 28, 11, 31, 7, 14, 48, 35, 9, 19, 39, 23, 4, 38, 20, 10, 45, 16, 27, 42, 46, 26, 15, 50, 43, 6, 25, 41, 34, 3, 24, 36, 1, 17, 8]);
% time elapsed: 4.27 s
----------
%%%mzn-stat: initTime=0.004860361
%%%mzn-stat: objective=771
%%%mzn-stat: nodes=12406
%%%mzn-stat: restarts=3
%%%mzn-stat: peakDepth=169
%%%mzn-stat: solveTime=2.622981995
%%%mzn-stat: variables=445
%%%mzn-stat: propagators=1500
%%%mzn-stat: failures=10351
%%%mzn-stat: propagations=3648729
%%%mzn-stat: nogoods=10351
%%%mzn-stat: AverageConflictSize=34.202589121823976
%%%mzn-stat: NumUnitNogoodsLearned=458
%%%mzn-stat: AverageLearnedNogoodLength=25.394937687179983
%%%mzn-stat: AverageBacktrackAmount=0
%%%mzn-stat: AverageLbd=9.029658970147812
%%%mzn-stat-end
maxleg = 771;
succ = array1d(1..50,[18, 12, 45, 22, 13, 26, 32, 5, 42, 21, 28, 44, 30, 33, 38, 40, 49, 2, 31, 7, 14, 48, 35, 46, 19, 43, 23, 17, 11, 20, 10, 3, 16, 27, 9, 47, 24, 29, 41, 50, 6, 25, 37, 34, 15, 36, 8, 1, 4, 39]);
% time elapsed: 4.29 s
----------
==========
% time elapsed: 4.29 s
%%%mzn-stat: initTime=0.004860361
%%%mzn-stat: objective=771
%%%mzn-stat: nodes=12406
%%%mzn-stat: restarts=3
%%%mzn-stat: peakDepth=169
%%%mzn-stat: solveTime=2.623054436
%%%mzn-stat: variables=445
%%%mzn-stat: propagators=1500
%%%mzn-stat: failures=10352
%%%mzn-stat: propagations=3648743
%%%mzn-stat: nogoods=10352
%%%mzn-stat: AverageConflictSize=34.19976816074188
%%%mzn-stat: NumUnitNogoodsLearned=459
%%%mzn-stat: AverageLearnedNogoodLength=25.39258114374034
%%%mzn-stat: AverageBacktrackAmount=0
%%%mzn-stat: AverageLbd=9.028883307573416
%%%mzn-stat-end
